22
11
7 5 0 19 16 1 3 14 15 20 13 17 21 6
16 5 4 2 12 10 0 14 6 13 17 7 20 15 8 9 3 21 18 1 19
15 11 0 6 14 12 7 19 1 8 20 16 17 2 21 3 18 4 10 13
12 5 11 1 7 21
11 5 7 13 0 2 3 8 10 16
2 20 7 18 12 13 1 6 17 9 4 8 11 5 14 3 19
10 6 21 14 9 17 16
6 11 1 2
0 5 8 6 20 9 19 15 17
5 19 15 4 1 12 17 2 0 6 21 14 18 20
18 5 16 9 10 12 1 7 6 14 3 17 2 4 0 8 11 19 21 20 15 13
